
Gurobi 9.5.0 (linux64) logging started Tue Nov  7 13:14:31 2023

Set parameter LogFile to value "/lustre1/scratch/348/vsc34888/JointResearch/05.Models/06.Benchmarking/D.Representative_days_based_on_RES_and_Demand/9n_ByStages_nc20/openStarNet_9n_ByStages_nc20.log"
Set parameter Method to value 2
Set parameter MIPFocus to value 1
Set parameter Presolve to value 2
Set parameter RINS to value 100
Set parameter MIPGap to value 0.01
Set parameter Threads to value 36
Set parameter TimeLimit to value 604800
Set parameter IterationLimit to value 760000000
Gurobi Optimizer version 9.5.0 build v9.5.0rc5 (linux64)
Thread count: 36 physical cores, 36 logical processors, using up to 36 threads
Optimize a model with 5549 rows, 2924 columns and 16562 nonzeros
Model fingerprint: 0xf83c26c5
Variable types: 2888 continuous, 36 integer (36 binary)
Coefficient statistics:
  Matrix range     [9e-04, 2e+03]
  Objective range  [1e+00, 1e+00]
  Bounds range     [2e-03, 2e+00]
  RHS range        [9e-04, 1e+00]
Presolve removed 2009 rows and 966 columns
Presolve time: 0.02s
Presolved: 3540 rows, 1958 columns, 12542 nonzeros
Variable types: 1922 continuous, 36 integer (36 binary)
Found heuristic solution: objective 606.8636640
Root relaxation presolved: 3540 rows, 1958 columns, 12542 nonzeros

Root barrier log...

Ordering time: 0.08s

Barrier statistics:
 AA' NZ     : 1.542e+05
 Factor NZ  : 1.027e+06 (roughly 10 MB of memory)
 Factor Ops : 5.420e+08 (less than 1 second per iteration)
 Threads    : 36

                  Objective                Residual
Iter       Primal          Dual         Primal    Dual     Compl     Time
   0   3.47783995e+05 -1.49306826e+07  6.05e+00 3.52e+02  6.28e+03     0s
   1   4.09180944e+04 -4.18118267e+06  6.41e-01 3.87e-11  8.01e+02     0s
   2   8.52769074e+03 -5.39436628e+05  3.66e-13 3.92e-11  7.79e+01     0s
   3   2.06967698e+03 -2.38969592e+04  9.99e-13 1.08e-11  3.69e+00     0s
   4   9.23328677e+02 -4.88757682e+03  4.29e-13 1.82e-12  8.26e-01     0s
   5   4.97703437e+02 -1.57822480e+03  4.22e-13 9.09e-13  2.95e-01     0s
   6   3.29626635e+02 -8.57042563e+02  2.97e-13 9.09e-13  1.69e-01     0s
   7   2.07312362e+02 -3.62360501e+02  3.34e-13 1.82e-12  8.10e-02     0s
   8   1.25165063e+02 -3.69876920e+01  2.68e-13 9.09e-13  2.30e-02     0s
   9   9.49777080e+01  6.93146937e+01  2.37e-13 9.09e-13  3.65e-03     0s
  10   8.38068284e+01  8.20507549e+01  1.32e-12 1.82e-12  2.50e-04     0s
  11   8.30527517e+01  8.30470833e+01  3.63e-13 1.82e-12  8.06e-07     0s
  12   8.30489354e+01  8.30489353e+01  1.56e-12 9.09e-13  9.35e-13     0s

Barrier solved model in 12 iterations and 0.42 seconds (0.15 work units)
Optimal objective 8.30489354e+01


Root relaxation: objective 8.304894e+01, 152 iterations, 0.39 seconds (0.11 work units)

    Nodes    |    Current Node    |     Objective Bounds      |     Work
 Expl Unexpl |  Obj  Depth IntInf | Incumbent    BestBd   Gap | It/Node Time

     0     0   83.04894    0    5  606.86366   83.04894  86.3%     -    0s
H    0     0                     529.1609554   83.04894  84.3%     -    0s
H    0     0                     107.3785508   83.04894  22.7%     -    0s
H    0     0                      93.6535508   92.67573  1.04%     -    0s
     0     0   92.67573    0    2   93.65355   92.67573  1.04%     -    0s
H    0     0                      93.4161723   92.67573  0.79%     -    0s

Cutting planes:
  Implied bound: 7
  MIR: 31

Explored 1 nodes (239 simplex iterations) in 0.50 seconds (0.19 work units)
Thread count was 36 (of 36 available processors)

Solution count 5: 93.4162 93.6536 107.379 ... 606.864

Optimal solution found (tolerance 1.00e-02)
Best objective 9.341617232444e+01, best bound 9.267572921058e+01, gap 0.7926%

Gurobi 9.5.0 (linux64) logging started Tue Nov  7 13:14:32 2023

Set parameter LogFile to value "/lustre1/scratch/348/vsc34888/JointResearch/05.Models/06.Benchmarking/D.Representative_days_based_on_RES_and_Demand/9n_ByStages_nc20/openStarNet_9n_ByStages_nc20.log"
Set parameter Method to value 2
Set parameter MIPFocus to value 1
Set parameter Presolve to value 2
Set parameter RINS to value 100
Set parameter MIPGap to value 0.01
Set parameter Threads to value 36
Set parameter TimeLimit to value 604800
Set parameter IterationLimit to value 760000000
No parameters matching 'relax_integrality' found
Gurobi Optimizer version 9.5.0 build v9.5.0rc5 (linux64)
Thread count: 36 physical cores, 36 logical processors, using up to 36 threads
Optimize a model with 5549 rows, 2888 columns and 13646 nonzeros
Model fingerprint: 0xee568a9b
Coefficient statistics:
  Matrix range     [9e-04, 2e+03]
  Objective range  [1e+00, 1e+00]
  Bounds range     [2e-03, 2e+00]
  RHS range        [9e-04, 2e+01]
Presolve removed 4849 rows and 1659 columns
Presolve time: 0.01s
Presolved: 700 rows, 1229 columns, 2649 nonzeros

Ordering time: 0.00s

Barrier statistics:
 AA' NZ     : 1.840e+03
 Factor NZ  : 7.140e+03 (roughly 1 MB of memory)
 Factor Ops : 8.778e+04 (less than 1 second per iteration)
 Threads    : 1

                  Objective                Residual
Iter       Primal          Dual         Primal    Dual     Compl     Time
   0   3.91902887e+05 -8.63050540e+06  3.39e+00 9.09e-13  7.64e+03     0s
   1   5.80305154e+04 -1.69040952e+06  3.52e-01 4.55e-12  9.03e+02     0s
   2   1.19693807e+04 -2.68307264e+05  1.49e-02 5.82e-12  1.07e+02     0s
   3   2.26941581e+03 -9.65966831e+03  2.40e-04 2.73e-12  4.42e+00     0s
   4   6.65808921e+02 -1.47330847e+03  7.28e-14 1.36e-12  7.93e-01     0s
   5   3.14933613e+02 -4.42948004e+02  4.88e-14 9.09e-13  2.81e-01     0s
   6   1.91181630e+02 -1.74804166e+02  8.79e-14 9.09e-13  1.36e-01     0s
   7   1.22161817e+02 -1.21460869e+01  5.21e-13 9.09e-13  4.98e-02     0s
   8   9.66598696e+01  8.26475798e+01  3.65e-13 1.82e-12  5.19e-03     0s
   9   9.35358354e+01  9.26797261e+01  1.50e-12 9.09e-13  3.17e-04     0s
  10   9.34179309e+01  9.34128754e+01  5.30e-13 1.82e-12  1.87e-06     0s
  11   9.34161723e+01  9.34161723e+01  1.71e-12 9.09e-13  6.22e-12     0s

Barrier solved model in 11 iterations and 0.02 seconds (0.01 work units)
Optimal objective 9.34161723e+01

Crossover log...

     238 DPushes remaining with DInf 0.0000000e+00                 0s
       0 DPushes remaining with DInf 0.0000000e+00                 0s

      24 PPushes remaining with PInf 0.0000000e+00                 0s
       0 PPushes remaining with PInf 0.0000000e+00                 0s

  Push phase complete: Pinf 0.0000000e+00, Dinf 1.6031620e-13      0s

Iteration    Objective       Primal Inf.    Dual Inf.      Time
      39    9.3416172e+01   0.000000e+00   0.000000e+00      0s

Solved in 39 iterations and 0.02 seconds (0.01 work units)
Optimal objective  9.341617232e+01

Gurobi 9.5.0 (linux64) logging started Wed Nov 15 15:06:19 2023

Set parameter LogFile to value "/lustre1/scratch/348/vsc34888/JointResearch/05.Models/06.Benchmarking/D.Representative_days_based_on_RES_and_Demand/9n_ByStages_nc20/openStarNet_9n_ByStages_nc20.log"
Set parameter Method to value 2
Set parameter MIPFocus to value 1
Set parameter Presolve to value 2
Set parameter RINS to value 100
Set parameter MIPGap to value 0.01
Set parameter Threads to value 36
Set parameter TimeLimit to value 604800
Set parameter IterationLimit to value 760000000
Gurobi Optimizer version 9.5.0 build v9.5.0rc5 (linux64)
Thread count: 36 physical cores, 36 logical processors, using up to 36 threads
Optimize a model with 5793 rows, 3046 columns and 17563 nonzeros
Model fingerprint: 0xde1199f0
Variable types: 3010 continuous, 36 integer (36 binary)
Coefficient statistics:
  Matrix range     [9e-04, 2e+03]
  Objective range  [1e+00, 1e+00]
  Bounds range     [3e-03, 2e+00]
  RHS range        [9e-04, 1e+00]
Presolve removed 2076 rows and 1003 columns
Presolve time: 0.02s
Presolved: 3717 rows, 2043 columns, 13158 nonzeros
Variable types: 2007 continuous, 36 integer (36 binary)
Found heuristic solution: objective 683.9051721
Root relaxation presolved: 3717 rows, 2043 columns, 13158 nonzeros

Root barrier log...

Ordering time: 0.07s

Barrier statistics:
 AA' NZ     : 1.680e+05
 Factor NZ  : 1.242e+06 (roughly 12 MB of memory)
 Factor Ops : 7.072e+08 (less than 1 second per iteration)
 Threads    : 36

                  Objective                Residual
Iter       Primal          Dual         Primal    Dual     Compl     Time
   0   3.58141883e+05 -1.88842003e+07  6.22e+00 4.24e+02  7.71e+03     0s
   1   4.62538051e+04 -5.41963476e+06  6.99e-01 6.24e-11  1.01e+03     0s
   2   1.05747501e+04 -7.12732092e+05  2.06e-13 3.01e-11  9.83e+01     0s
   3   2.91991344e+03 -1.98937180e+04  1.08e-12 2.00e-11  3.10e+00     0s
   4   8.58598090e+02 -4.54929707e+03  2.59e-13 4.20e-12  7.35e-01     0s
   5   4.78898880e+02 -1.27660836e+03  2.50e-13 1.07e-12  2.38e-01     0s
   6   2.89718102e+02 -2.81444387e+02  2.35e-13 9.09e-13  7.76e-02     0s
   7   1.47339325e+02 -4.25672396e+01  2.51e-13 9.09e-13  2.58e-02     0s
   8   1.00697908e+02  4.23182044e+01  2.61e-13 1.82e-12  7.93e-03     0s
   9   8.32059888e+01  7.94128162e+01  7.57e-13 1.36e-12  5.15e-04     0s
  10   8.12254770e+01  8.08491398e+01  1.63e-11 9.09e-13  5.11e-05     0s
  11   8.11270646e+01  8.11203429e+01  4.80e-12 1.82e-12  9.13e-07     0s
  12   8.11254927e+01  8.11254926e+01  1.18e-11 2.73e-12  1.04e-11     0s

Barrier solved model in 12 iterations and 0.37 seconds (0.17 work units)
Optimal objective 8.11254927e+01


Root relaxation: objective 8.112549e+01, 156 iterations, 0.34 seconds (0.13 work units)

    Nodes    |    Current Node    |     Objective Bounds      |     Work
 Expl Unexpl |  Obj  Depth IntInf | Incumbent    BestBd   Gap | It/Node Time

     0     0   81.12549    0    5  683.90517   81.12549  88.1%     -    0s
H    0     0                     587.8107759   81.12549  86.2%     -    0s
     0     0   90.76368    0    1  587.81078   90.76368  84.6%     -    0s
H    0     0                      91.9979488   90.76368  1.34%     -    0s
     0     0   90.76368    0    1   91.99795   90.76368  1.34%     -    0s

Cutting planes:
  Gomory: 1
  MIR: 25
  Relax-and-lift: 3

Explored 1 nodes (269 simplex iterations) in 0.47 seconds (0.22 work units)
Thread count was 36 (of 36 available processors)

Solution count 3: 91.9979 587.811 683.905 

Optimal solution found (tolerance 1.00e-02)
Best objective 9.199794878061e+01, best bound 9.187056762990e+01, gap 0.1385%

Gurobi 9.5.0 (linux64) logging started Wed Nov 15 15:06:20 2023

Set parameter LogFile to value "/lustre1/scratch/348/vsc34888/JointResearch/05.Models/06.Benchmarking/D.Representative_days_based_on_RES_and_Demand/9n_ByStages_nc20/openStarNet_9n_ByStages_nc20.log"
Set parameter Method to value 2
Set parameter MIPFocus to value 1
Set parameter Presolve to value 2
Set parameter RINS to value 100
Set parameter MIPGap to value 0.01
Set parameter Threads to value 36
Set parameter TimeLimit to value 604800
Set parameter IterationLimit to value 760000000
No parameters matching 'relax_integrality' found
Gurobi Optimizer version 9.5.0 build v9.5.0rc5 (linux64)
Thread count: 36 physical cores, 36 logical processors, using up to 36 threads
Optimize a model with 5793 rows, 3010 columns and 14503 nonzeros
Model fingerprint: 0xf916a900
Coefficient statistics:
  Matrix range     [9e-04, 2e+03]
  Objective range  [1e+00, 1e+00]
  Bounds range     [3e-03, 2e+00]
  RHS range        [9e-04, 2e+01]
Presolve removed 5058 rows and 1732 columns
Presolve time: 0.01s
Presolved: 735 rows, 1278 columns, 2769 nonzeros

Ordering time: 0.00s

Barrier statistics:
 AA' NZ     : 1.932e+03
 Factor NZ  : 7.497e+03 (roughly 1 MB of memory)
 Factor Ops : 9.217e+04 (less than 1 second per iteration)
 Threads    : 1

                  Objective                Residual
Iter       Primal          Dual         Primal    Dual     Compl     Time
   0   3.87730016e+05 -1.09288613e+07  3.40e+00 9.09e-13  9.25e+03     0s
   1   5.92279435e+04 -2.16078231e+06  3.61e-01 5.00e-12  1.11e+03     0s
   2   1.46155214e+04 -3.49900712e+05  1.22e-02 3.75e-12  1.33e+02     0s
   3   3.56361267e+03 -1.27491624e+04  1.68e-04 2.73e-12  5.81e+00     0s
   4   7.31477254e+02 -1.97943512e+03  1.10e-13 1.82e-12  9.65e-01     0s
   5   3.74290124e+02 -6.59678522e+02  1.09e-13 1.36e-12  3.68e-01     0s
   6   2.27219871e+02 -1.96871293e+02  6.48e-14 9.09e-13  1.51e-01     0s
   7   1.49211197e+02  1.03971025e+01  2.84e-13 9.09e-13  4.94e-02     0s
   8   9.79776671e+01  7.89106698e+01  2.02e-12 1.82e-12  6.79e-03     0s
   9   9.24786960e+01  9.12084519e+01  2.54e-12 1.36e-12  4.52e-04     0s
  10   9.20549987e+01  9.18622382e+01  2.51e-11 9.09e-13  6.86e-05     0s
  11   9.19990895e+01  9.19813102e+01  5.56e-11 1.82e-12  6.33e-06     0s
  12   9.19979868e+01  9.19978499e+01  1.54e-11 3.64e-12  4.87e-08     0s
  13   9.19979488e+01  9.19979487e+01  6.70e-13 1.82e-12  4.87e-11     0s

Barrier solved model in 13 iterations and 0.02 seconds (0.01 work units)
Optimal objective 9.19979488e+01

Crossover log...

     252 DPushes remaining with DInf 0.0000000e+00                 0s
       0 DPushes remaining with DInf 0.0000000e+00                 0s

      31 PPushes remaining with PInf 0.0000000e+00                 0s
       0 PPushes remaining with PInf 0.0000000e+00                 0s

  Push phase complete: Pinf 0.0000000e+00, Dinf 2.2198909e-13      0s

Iteration    Objective       Primal Inf.    Dual Inf.      Time
      47    9.1997949e+01   0.000000e+00   0.000000e+00      0s

Solved in 47 iterations and 0.02 seconds (0.01 work units)
Optimal objective  9.199794878e+01

Gurobi 10.0.0 (win64) logging started Thu Nov 30 22:17:19 2023

Set parameter LogFile to value "C:\Users\ealvarezq\Documents\GitHub\Comillas\Models\JointResearch\05. Models\06.Benchmarking\D.Representative_days_based_on_RES_and_Demand\9n_ByStages_nc20/openStarNet_9n_ByStages_nc20.log"
Set parameter Method to value 2
Set parameter MIPFocus to value 1
Set parameter Presolve to value 2
Set parameter RINS to value 100
Set parameter MIPGap to value 0.01
Set parameter Threads to value 9
Set parameter TimeLimit to value 259200
Set parameter IterationLimit to value 760000000
Gurobi Optimizer version 10.0.0 build v10.0.0rc2 (win64)

CPU model: Intel(R) Core(TM) i7-8700 CPU @ 3.20GHz, instruction set [SSE2|AVX|AVX2]
Thread count: 6 physical cores, 12 logical processors, using up to 9 threads

Optimize a model with 5506 rows, 2941 columns and 16628 nonzeros
Model fingerprint: 0xfa8a28c1
Variable types: 2905 continuous, 36 integer (36 binary)
Coefficient statistics:
  Matrix range     [9e-04, 2e+03]
  Objective range  [1e+00, 1e+00]
  Bounds range     [8e-04, 2e+00]
  RHS range        [8e-04, 1e+00]
Presolve removed 1873 rows and 991 columns
Presolve time: 0.02s
Presolved: 3633 rows, 1950 columns, 12414 nonzeros
Variable types: 1914 continuous, 36 integer (36 binary)
Found heuristic solution: objective 821.4902592
Root relaxation presolved: 3633 rows, 1950 columns, 12414 nonzeros

Root barrier log...

Ordering time: 0.09s

Barrier statistics:
 AA' NZ     : 1.610e+05
 Factor NZ  : 8.784e+05 (roughly 10 MB of memory)
 Factor Ops : 3.714e+08 (less than 1 second per iteration)
 Threads    : 9

                  Objective                Residual
Iter       Primal          Dual         Primal    Dual     Compl     Time
   0   4.76065648e+05 -1.36647837e+07  7.18e+00 3.30e+02  7.42e+03     0s
   1   6.57236742e+04 -5.53047939e+06  9.07e-01 4.27e-11  1.11e+03     0s
   2   1.02073361e+04 -3.52266701e+06  2.42e-02 6.59e-11  4.99e+02     0s
   3   3.59064210e+03 -6.90613044e+04  1.31e-05 6.05e-11  1.01e+01     0s
   4   1.23149492e+03 -7.45858918e+03  5.89e-08 5.63e-12  1.21e+00     0s
   5   6.80509613e+02 -1.58486824e+03  1.05e-08 1.72e-12  3.16e-01     0s
   6   2.59605053e+02 -9.01930994e+01  1.10e-09 1.64e-12  4.87e-02     0s
   7   1.15976961e+02  5.80344067e+01  1.37e-10 2.15e-12  8.07e-03     0s
   8   9.44264556e+01  8.37044171e+01  2.60e-11 1.41e-12  1.49e-03     0s
   9   8.93635127e+01  8.66981725e+01  1.27e-11 1.31e-12  3.71e-04     0s
  10   8.82298106e+01  8.80875456e+01  1.16e-11 2.45e-12  1.98e-05     0s
  11   8.81817822e+01  8.81816025e+01  1.32e-11 1.46e-12  2.50e-08     0s
  12   8.81817191e+01  8.81817190e+01  1.27e-11 1.52e-12  2.50e-11     0s

Barrier solved model in 12 iterations and 0.28 seconds (0.17 work units)
Optimal objective 8.81817191e+01


Root relaxation: objective 8.818172e+01, 140 iterations, 0.25 seconds (0.14 work units)

    Nodes    |    Current Node    |     Objective Bounds      |     Work
 Expl Unexpl |  Obj  Depth IntInf | Incumbent    BestBd   Gap | It/Node Time

     0     0   88.18172    0    3  821.49026   88.18172  89.3%     -    0s
H    0     0                     718.7421891   88.18172  87.7%     -    0s
H    0     0                     669.9723009   88.18172  86.8%     -    0s
     0     0   97.57891    0    1  669.97230   97.57891  85.4%     -    0s
H    0     0                     151.0328164   97.57891  35.4%     -    0s
H    0     0                     134.3851383   97.57891  27.4%     -    0s
H    0     0                     101.3101383   97.57891  3.68%     -    0s
H    0     0                      97.5885721   97.57891  0.01%     -    0s
     0     0   97.58857    0    2   97.58857   97.58857  0.00%     -    0s

Cutting planes:
  Gomory: 1
  MIR: 8

Explored 1 nodes (208 simplex iterations) in 0.40 seconds (0.21 work units)
Thread count was 9 (of 12 available processors)

Solution count 7: 97.5886 101.31 134.385 ... 821.49

Optimal solution found (tolerance 1.00e-02)
Best objective 9.758857213882e+01, best bound 9.758857213882e+01, gap 0.0000%

Gurobi 10.0.0 (win64) logging started Thu Nov 30 22:17:21 2023

Set parameter LogFile to value "C:\Users\ealvarezq\Documents\GitHub\Comillas\Models\JointResearch\05. Models\06.Benchmarking\D.Representative_days_based_on_RES_and_Demand\9n_ByStages_nc20/openStarNet_9n_ByStages_nc20.log"
Set parameter Method to value 2
Set parameter MIPFocus to value 1
Set parameter Presolve to value 2
Set parameter RINS to value 100
Set parameter MIPGap to value 0.01
Set parameter Threads to value 9
Set parameter TimeLimit to value 259200
Set parameter IterationLimit to value 760000000
No parameters matching 'relax_integrality' found
Gurobi Optimizer version 10.0.0 build v10.0.0rc2 (win64)

CPU model: Intel(R) Core(TM) i7-8700 CPU @ 3.20GHz, instruction set [SSE2|AVX|AVX2]
Thread count: 6 physical cores, 12 logical processors, using up to 9 threads

Optimize a model with 5506 rows, 2905 columns and 13568 nonzeros
Model fingerprint: 0x4771204d
Coefficient statistics:
  Matrix range     [9e-04, 2e+03]
  Objective range  [1e+00, 1e+00]
  Bounds range     [8e-04, 2e+00]
  RHS range        [8e-04, 2e+01]
Presolve removed 5029 rows and 1942 columns
Presolve time: 0.01s
Presolved: 477 rows, 984 columns, 2127 nonzeros

Ordering time: 0.00s

Barrier statistics:
 AA' NZ     : 1.026e+03
 Factor NZ  : 4.938e+03 (roughly 1 MB of memory)
 Factor Ops : 6.747e+04 (less than 1 second per iteration)
 Threads    : 1

                  Objective                Residual
Iter       Primal          Dual         Primal    Dual     Compl     Time
   0   4.74397658e+05 -8.14398116e+06  5.86e+00 7.97e+02  1.76e+04     0s
   1   7.18273190e+04 -3.87138533e+06  7.38e-01 1.46e-11  2.92e+03     0s
   2   1.58191495e+04 -1.04091450e+06  2.02e-02 1.82e-11  4.88e+02     0s
   3   8.29831179e+03 -4.03146646e+04  4.38e-14 1.30e-11  2.17e+01     0s
   4   1.26982637e+03 -4.71137296e+03  1.22e-14 4.55e-12  2.67e+00     0s
   5   7.64765097e+02 -1.01751765e+03  8.16e-15 3.01e-12  7.95e-01     0s
   6   3.68480114e+02 -2.36247417e+02  1.88e-14 2.05e-12  2.70e-01     0s
   7   1.52049297e+02  3.18062365e+01  1.55e-14 2.85e-12  5.37e-02     0s
   8   1.15490446e+02  8.17168766e+01  1.05e-14 2.25e-12  1.51e-02     0s
   9   1.02935164e+02  9.45398388e+01  6.83e-14 3.86e-12  3.75e-03     0s
  10   9.78985376e+01  9.73968643e+01  1.15e-13 3.22e-12  2.24e-04     0s
  11   9.75908473e+01  9.75819132e+01  9.54e-14 3.55e-12  3.99e-06     0s
  12   9.75885732e+01  9.75885710e+01  4.32e-13 3.80e-12  1.01e-09     0s
  13   9.75885721e+01  9.75885721e+01  3.18e-14 3.65e-12  1.01e-15     0s

Barrier solved model in 13 iterations and 0.02 seconds (0.01 work units)
Optimal objective 9.75885721e+01

Crossover log...

     248 DPushes remaining with DInf 0.0000000e+00                 0s
       0 DPushes remaining with DInf 0.0000000e+00                 0s

       8 PPushes remaining with PInf 0.0000000e+00                 0s
       0 PPushes remaining with PInf 0.0000000e+00                 0s

  Push phase complete: Pinf 0.0000000e+00, Dinf 1.6055907e-13      0s

Iteration    Objective       Primal Inf.    Dual Inf.      Time
      15    9.7588572e+01   0.000000e+00   0.000000e+00      0s

Solved in 15 iterations and 0.02 seconds (0.01 work units)
Optimal objective  9.758857214e+01
